InboundTrucks  = 50;
OutboundTrucks = 50;
InboundDoors   = 15;
OutboundDoors  = 15;
ReleaseTime    = [7,18,17,4,11,19,15,20,18,2,97,21,80,53,90,49,44,111,80,89,90,80,70,101,39,49,101,39,86,69,114,21,105,119,28,40,117,95,25,58,119,23,54,80,96,112,69,111,120,74];
UnloadTime     = [12,13,10,8,12,12,13,12,11,5,32,20,12,25,26,24,26,12,19,20,28,26,32,31,32,11,30,17,31,27,27,11,20,17,31,27,27,10,14,22,20,11,27,17,32,34,22,11,18,22];
LoadTime       = [7,9,11,11,8,8,9,12,8,15,14,14,18,15,10,22,16,20,24,21,14,23,22,13,16,11,23,15,18,17,12,24,23,23,20,22,14,10,24,10,11,20,15,17,22,22,25,10,16,24];
TransferTime   = [| 2,4,0,0,3,2,4,1,4,3,0,0,0,0,0,0,0,0,0,7,0,0,0,7,0,0,0,0,0,0,0,0,3,6,0,0,0,0,0,0,0,0,0,0,0,0,0,0,0,0 | 0,0,2,0,0,0,0,3,0,2,0,4,0,0,0,0,0,0,0,4,0,4,0,0,0,0,5,0,0,0,0,0,4,0,8,4,0,0,0,0,0,0,0,0,0,0,0,0,0,0 | 0,3,4,3,0,2,4,3,3,1,0,0,0,0,8,0,0,7,0,0,0,0,0,0,0,0,0,0,0,0,0,0,0,0,0,0,0,0,0,0,0,0,0,0,0,0,0,4,0,0 | 1,2,0,0,0,0,3,2,0,3,0,0,0,0,0,0,0,0,0,0,0,0,0,0,0,0,0,0,0,0,0,0,0,0,0,0,0,0,0,0,0,0,0,0,0,0,0,0,0,0 | 1,0,2,0,3,0,1,1,0,3,0,0,0,6,0,0,0,0,0,0,0,0,0,0,0,0,0,0,0,0,0,0,0,0,0,0,0,0,0,0,0,0,8,0,0,6,0,0,0,0 | 0,0,3,0,0,1,2,0,0,3,0,0,0,0,0,0,0,0,0,0,0,0,0,0,0,0,0,0,0,0,0,0,0,0,0,0,0,0,8,0,0,0,0,0,0,0,0,0,0,0 | 2,2,1,1,3,3,0,1,1,0,0,0,0,0,0,0,0,0,0,0,0,0,0,0,0,0,0,0,0,0,0,0,0,0,0,0,0,0,0,0,0,0,0,0,0,0,0,0,0,0 | 0,3,0,0,3,4,0,0,1,2,0,0,0,0,0,0,0,0,0,0,5,0,0,0,0,0,0,0,3,0,0,0,0,0,0,0,0,0,0,0,0,3,0,6,0,0,0,0,0,0 | 0,3,0,0,0,0,2,0,3,4,0,7,0,0,0,0,0,0,0,0,0,0,0,0,0,0,0,0,0,0,0,0,0,0,0,0,0,0,0,0,0,0,5,0,5,0,0,0,0,0 | 1,0,1,1,4,3,0,2,0,0,0,0,0,4,0,0,0,0,0,0,0,0,0,0,0,0,0,7,0,0,0,0,0,0,0,0,0,0,0,0,0,0,0,0,0,7,0,0,0,0 | 7,0,0,7,0,0,0,0,0,3,6,0,4,0,5,6,3,0,0,5,7,0,3,0,4,0,0,0,3,0,0,0,6,0,0,0,0,0,0,3,7,0,0,0,0,0,0,0,5,0 | 0,0,3,0,7,0,0,0,0,8,0,4,0,8,0,0,7,0,5,0,0,0,7,0,5,0,0,0,0,0,0,5,5,6,4,7,0,0,6,8,0,7,0,0,6,0,0,0,4,6 | 0,8,0,0,5,0,5,0,0,6,0,0,0,5,6,0,6,7,0,0,0,5,0,0,0,5,0,3,0,0,0,0,0,8,0,3,0,6,7,0,4,0,0,0,0,0,8,4,4,0 | 0,0,0,4,0,0,0,0,3,8,0,0,6,0,6,5,8,0,0,0,3,3,6,0,0,8,5,0,6,0,3,4,3,0,0,5,6,0,0,8,6,0,0,8,0,5,0,0,0,3 | 0,0,0,0,8,0,0,0,0,6,0,0,0,7,0,0,6,0,0,4,6,4,0,0,0,8,5,0,0,0,0,0,4,0,4,7,0,3,3,3,8,8,6,4,8,0,0,7,0,5 | 0,0,0,0,7,0,8,0,0,0,8,0,0,0,0,0,7,0,0,3,0,0,0,0,0,0,4,0,0,0,0,0,0,4,4,0,0,0,0,0,7,0,0,6,0,5,4,0,5,4 | 0,0,0,0,0,0,0,0,0,0,0,0,0,3,3,0,0,0,4,0,0,0,0,0,0,4,0,0,0,7,0,4,0,0,0,0,0,0,0,0,7,5,0,0,6,0,0,0,0,3 | 5,8,8,0,3,0,0,3,0,3,0,5,4,0,6,8,0,0,0,5,0,6,3,0,8,0,0,0,0,0,0,0,0,0,5,4,0,0,5,8,4,8,0,0,0,3,0,4,0,7 | 0,5,0,0,7,0,0,0,0,6,0,5,0,0,0,0,8,0,0,0,5,0,8,3,6,0,0,8,4,0,0,3,3,5,8,0,4,0,0,4,0,0,6,0,8,8,0,4,7,0 | 0,8,0,0,0,0,0,7,0,0,0,8,5,7,0,0,0,8,0,0,5,0,0,4,0,0,4,0,0,0,0,8,5,0,6,6,0,0,6,3,0,7,5,4,0,5,0,0,4,0 | 8,0,7,0,0,0,4,3,0,0,8,0,0,8,8,8,0,0,5,0,4,3,0,0,0,0,7,0,0,5,0,0,0,5,0,0,7,0,0,0,0,5,0,4,5,0,0,0,0,4 | 0,0,0,0,8,0,0,0,0,0,0,0,4,0,5,0,0,5,0,0,0,3,0,6,6,0,0,6,0,5,0,4,6,0,4,0,0,0,0,6,0,0,0,7,0,0,6,5,0,0 | 0,0,0,0,0,0,7,0,0,0,0,0,0,4,3,0,6,0,0,3,5,0,5,0,6,0,0,0,0,8,8,0,0,5,4,8,5,0,8,4,0,0,0,0,7,6,4,0,0,7 | 0,0,0,0,0,3,7,0,0,4,0,0,7,8,7,0,4,0,0,7,0,0,6,0,0,3,0,0,0,0,0,0,7,0,5,0,0,0,0,0,7,6,0,0,4,3,0,4,6,3 | 0,0,0,0,0,4,0,0,7,0,7,0,0,6,7,0,0,0,0,0,0,0,0,0,0,8,0,4,0,0,6,0,0,0,7,0,0,0,8,0,0,0,6,0,0,0,5,8,0,8 | 7,0,0,5,0,3,0,0,0,3,3,0,7,0,3,0,0,0,8,3,0,0,3,0,7,3,3,7,8,0,5,0,7,0,7,5,4,0,0,0,0,0,0,0,0,0,4,0,0,0 | 0,0,7,0,8,0,8,6,0,0,0,0,0,0,0,0,8,8,0,0,6,0,8,0,3,5,0,0,7,0,0,0,0,0,0,8,0,0,0,0,0,7,7,0,0,8,5,0,5,5 | 0,0,0,0,3,0,0,0,0,0,7,0,0,6,0,0,6,0,7,0,0,0,8,0,4,7,0,0,0,0,0,0,6,4,0,6,4,8,0,0,0,0,7,3,4,5,7,0,0,0 | 0,8,4,0,0,8,0,0,0,6,4,0,0,8,0,0,7,0,0,7,7,0,0,0,7,0,0,0,0,0,0,0,6,0,0,0,5,0,0,5,0,0,0,6,0,0,0,0,6,0 | 8,0,0,0,4,6,6,0,0,7,3,0,0,0,5,4,0,8,4,0,8,5,6,5,5,0,0,0,0,5,0,6,6,0,0,0,0,6,6,8,0,0,8,8,0,0,3,0,0,0 | 0,0,4,0,0,0,0,0,4,0,0,6,5,0,0,0,0,0,0,3,0,7,0,7,0,0,0,4,0,0,0,0,0,8,0,0,0,0,0,0,0,5,4,8,6,0,0,0,0,6 | 0,0,0,0,8,7,8,0,0,0,5,0,8,0,5,0,7,8,8,4,0,5,0,3,5,0,3,0,7,0,3,0,0,5,0,0,0,0,0,0,6,8,0,4,0,0,0,0,0,0 | 0,0,0,0,0,5,6,7,4,0,6,3,0,5,5,6,6,8,0,0,6,0,8,0,3,0,0,0,0,0,0,6,0,0,6,0,0,0,0,0,0,4,0,0,0,0,0,4,0,0 | 0,3,7,0,6,6,5,0,0,3,0,0,0,0,3,0,7,0,0,5,0,0,5,0,0,0,0,4,6,0,0,3,0,0,0,0,4,0,5,0,7,0,0,8,0,4,0,3,3,0 | 0,0,0,7,0,6,3,7,0,3,8,0,5,0,0,0,7,8,0,0,0,6,4,0,3,8,0,3,5,0,7,0,0,0,3,3,4,0,0,0,0,0,3,0,0,0,4,0,0,5 | 4,0,3,8,0,0,6,0,0,0,0,0,0,0,0,0,0,0,0,8,0,7,0,0,0,5,0,6,6,0,0,0,0,7,0,0,8,7,4,0,6,4,5,8,0,0,0,0,0,5 | 3,5,6,0,0,0,8,6,0,0,0,4,0,5,8,0,3,0,7,7,4,0,0,7,7,0,5,4,6,0,0,7,0,3,0,0,0,0,5,0,3,6,8,0,6,0,0,0,0,6 | 0,8,0,0,0,5,0,5,0,0,0,8,0,5,0,7,6,4,0,6,0,0,0,0,0,0,6,3,0,3,0,0,0,8,0,6,0,4,5,6,0,5,0,0,0,0,0,0,7,0 | 0,8,6,8,0,0,0,0,7,0,0,0,0,0,0,3,0,4,0,0,0,0,0,8,5,5,6,7,0,0,0,8,8,0,5,0,4,0,0,8,6,3,0,5,7,0,0,0,0,0 | 0,0,8,0,0,0,0,3,0,7,0,0,0,0,0,6,0,0,5,6,4,0,8,7,5,0,6,6,0,0,0,3,0,6,0,0,0,0,0,0,8,5,0,0,0,3,0,0,5,6 | 8,0,0,3,4,0,5,0,7,0,0,0,0,0,3,7,3,0,0,0,5,0,0,0,0,0,3,5,0,0,0,5,0,3,0,0,8,0,0,0,4,0,4,0,0,3,0,0,0,7 | 0,6,8,8,0,0,0,0,0,7,0,0,0,0,0,4,0,0,6,0,8,0,7,5,0,6,0,4,0,0,7,4,0,5,0,3,0,5,0,0,0,0,0,0,4,7,0,0,0,6 | 0,0,0,4,8,0,3,5,3,0,0,0,0,0,0,8,7,0,4,0,3,0,7,0,0,0,0,0,3,0,0,0,0,7,8,5,8,4,0,4,5,0,7,7,0,3,0,0,0,0 | 3,5,8,3,0,3,0,0,0,4,0,0,0,0,0,5,6,0,0,0,0,0,0,0,7,0,0,5,0,0,6,0,0,0,0,0,0,5,0,0,0,0,0,3,6,0,7,0,6,0 | 0,0,0,3,7,0,7,0,8,0,0,0,0,0,7,7,0,0,0,7,0,0,0,0,0,0,7,7,4,0,7,0,0,0,7,0,0,0,0,0,0,0,7,8,0,0,6,4,0,8 | 0,0,0,0,0,0,0,0,0,0,0,0,4,7,7,4,4,7,0,5,4,0,8,7,5,6,0,0,0,0,5,0,0,0,0,0,0,0,0,0,0,0,0,0,4,6,5,0,8,0 | 0,3,0,0,4,0,0,0,3,3,7,0,0,0,0,0,0,7,0,0,0,0,6,0,8,4,3,0,0,0,0,0,0,0,0,3,6,0,8,6,0,0,7,0,0,0,5,0,0,0 | 5,8,0,7,8,0,7,0,0,4,0,0,0,0,5,5,3,3,0,0,0,0,0,0,0,0,6,0,6,0,0,8,0,0,0,0,0,0,0,8,0,0,0,0,5,0,0,0,0,0 | 0,0,0,0,0,3,8,0,4,4,0,0,0,7,0,0,3,0,4,0,0,0,0,0,8,4,0,5,0,0,3,8,0,0,0,0,0,3,0,5,7,0,0,0,8,0,0,0,0,0 | 0,0,0,0,0,0,3,0,0,0,6,0,0,0,4,8,0,0,0,0,0,3,8,7,0,0,0,0,0,0,0,0,0,7,0,0,0,0,0,0,0,0,3,0,0,0,5,0,0,7 |];
